3 100 1691
7 3 3 7 6 13 5 10 9 7
4 1 3
7 3 2 6
7
3 9 4
0 35.0 35.0 0.0 0.0 0 230
2 41.0 49.0 10.0 10.0 73 204 97 0 1 0 0 0 0 0 0 0 0
3 35.0 17.0 10.0 7.0 18 147 33 1 0 0 0 0 0 0 0 0 0
4 55.0 45.0 10.0 13.0 76 165 49 0 0 0 0 0 1 1 0 0 0
5 55.0 20.0 10.0 19.0 73 195 49 0 0 0 0 1 0 0 0 0 0
6 15.0 30.0 10.0 26.0 20 167 90 0 0 0 1 0 1 0 0 0 0
7 25.0 30.0 10.0 3.0 49 158 39 0 0 0 0 0 1 1 0 0 0
8 20.0 50.0 10.0 5.0 36 135 64 1 0 0 0 0 0 0 0 0 0
9 10.0 43.0 10.0 9.0 50 149 48 0 0 0 0 0 1 0 0 0 0
10 55.0 60.0 10.0 16.0 47 156 5 0 0 0 0 0 0 1 0 0 0
11 30.0 60.0 10.0 16.0 85 172 24 0 1 0 0 1 0 0 0 0 0
12 20.0 65.0 10.0 12.0 33 152 58 1 1 0 0 0 0 1 0 0 1
13 50.0 35.0 10.0 19.0 15 133 81 0 0 0 0 1 0 1 0 1 0
14 30.0 25.0 10.0 23.0 79 208 10 0 0 0 0 0 1 0 0 0 0
15 15.0 10.0 10.0 20.0 32 187 81 0 0 0 0 0 0 0 0 1 0
16 30.0 5.0 10.0 8.0 30 152 65 0 0 0 1 0 0 0 0 0 1
17 10.0 20.0 10.0 19.0 29 139 89 0 1 0 0 0 0 0 0 0 1
18 5.0 30.0 10.0 2.0 60 189 68 0 0 1 1 0 0 0 0 0 0
19 20.0 40.0 10.0 12.0 47 136 7 1 1 0 0 1 1 1 0 0 0
20 15.0 60.0 10.0 17.0 32 146 82 1 0 0 1 0 1 0 0 0 0
21 45.0 65.0 10.0 9.0 79 182 18 0 0 0 0 0 1 0 0 0 0
22 45.0 20.0 10.0 11.0 18 136 20 0 0 0 0 0 1 0 0 1 0
23 45.0 10.0 10.0 18.0 50 153 85 0 0 0 1 0 0 0 0 0 0
24 55.0 5.0 10.0 29.0 36 155 40 0 0 0 0 0 1 0 1 1 0
25 65.0 35.0 10.0 3.0 58 190 15 0 0 0 0 0 1 0 0 0 0
26 65.0 20.0 10.0 6.0 56 186 98 0 0 0 0 0 1 0 0 0 0
27 45.0 30.0 10.0 17.0 87 186 78 0 0 0 0 1 1 0 0 1 0
28 35.0 40.0 10.0 16.0 5 140 8 0 0 0 0 0 0 1 1 0 0
29 41.0 37.0 10.0 16.0 6 136 44 0 0 0 1 0 0 0 0 0 0
30 64.0 42.0 10.0 9.0 29 150 79 0 0 0 0 0 0 0 0 1 0
31 40.0 60.0 10.0 21.0 25 132 30 1 1 0 1 0 0 1 0 0 0
32 31.0 52.0 10.0 27.0 17 138 22 0 0 0 0 0 1 0 0 0 0
33 35.0 69.0 10.0 23.0 67 186 83 1 1 0 0 0 0 0 0 0 0
34 53.0 52.0 10.0 11.0 24 161 89 0 1 0 1 0 1 0 1 0 1
35 65.0 55.0 10.0 14.0 70 173 61 0 0 0 0 0 0 0 0 1 0
36 63.0 65.0 10.0 8.0 54 178 85 1 0 0 0 0 0 0 0 0 0
37 2.0 60.0 10.0 5.0 41 178 49 0 0 1 0 0 0 0 1 0 0
38 20.0 20.0 10.0 8.0 87 190 85 0 0 0 0 1 1 0 0 0 0
39 5.0 5.0 10.0 16.0 42 153 68 1 1 1 0 0 0 0 0 0 0
40 60.0 12.0 10.0 31.0 33 186 40 0 0 0 0 0 1 0 1 1 0
41 40.0 25.0 10.0 9.0 40 139 93 0 1 1 1 1 0 0 0 0 1
42 42.0 7.0 10.0 5.0 43 160 39 1 0 0 0 0 1 0 1 0 1
43 24.0 12.0 10.0 5.0 25 158 29 0 0 0 1 0 1 0 0 0 1
44 23.0 3.0 10.0 7.0 82 185 61 0 0 0 0 0 1 0 0 0 0
45 11.0 14.0 10.0 18.0 31 144 30 0 0 0 0 0 1 0 0 0 0
46 6.0 38.0 10.0 16.0 29 169 5 0 0 0 1 0 0 0 0 0 1
47 2.0 48.0 10.0 1.0 63 180 21 0 0 0 0 0 1 0 0 0 0
48 8.0 56.0 10.0 27.0 34 176 38 1 0 0 0 0 0 0 0 0 1
49 13.0 52.0 10.0 36.0 65 192 91 0 0 0 0 0 0 1 0 0 0
50 6.0 68.0 10.0 30.0 73 152 21 0 0 1 0 0 1 1 0 0 1
51 47.0 47.0 10.0 13.0 75 182 81 0 0 0 0 0 0 0 1 0 0
52 49.0 58.0 10.0 10.0 36 149 88 0 1 0 0 1 1 0 0 0 0
53 27.0 43.0 10.0 9.0 11 133 83 0 0 0 0 0 0 0 0 0 1
54 37.0 31.0 10.0 14.0 51 148 49 0 0 0 0 0 1 0 0 0 0
55 57.0 29.0 10.0 18.0 90 197 30 1 0 0 0 0 0 0 1 1 0
56 63.0 23.0 10.0 2.0 69 189 15 0 0 0 0 0 1 0 0 0 1
57 53.0 12.0 10.0 6.0 76 190 78 0 1 1 0 1 0 0 0 1 1
58 32.0 12.0 10.0 7.0 48 163 77 1 0 0 0 0 0 0 0 0 1
59 36.0 26.0 10.0 18.0 84 210 71 0 0 0 1 0 1 0 1 0 0
60 21.0 24.0 10.0 28.0 17 183 29 0 0 0 0 0 0 0 1 0 1
61 17.0 34.0 10.0 3.0 70 201 53 0 0 0 0 0 1 0 0 0 0
62 12.0 24.0 10.0 13.0 29 132 20 0 0 0 1 0 0 0 0 0 0
63 24.0 58.0 10.0 19.0 25 154 74 1 1 0 0 0 0 0 0 0 0
64 27.0 69.0 10.0 10.0 34 172 14 1 0 0 0 0 0 0 0 0 0
65 15.0 77.0 10.0 9.0 46 165 66 0 0 0 0 1 0 0 0 0 0
66 62.0 77.0 10.0 20.0 49 170 36 0 0 0 0 1 0 0 0 0 0
67 49.0 73.0 10.0 25.0 68 179 2 0 0 0 1 0 0 0 0 0 1
68 67.0 5.0 10.0 25.0 43 156 61 0 0 1 0 1 1 0 1 0 0
69 56.0 39.0 10.0 36.0 80 198 20 0 0 0 0 0 1 0 0 1 1
70 37.0 47.0 10.0 6.0 12 137 33 0 0 0 1 1 0 0 0 0 0
71 37.0 56.0 10.0 5.0 48 198 52 0 1 0 0 0 1 0 0 0 1
72 57.0 68.0 10.0 15.0 39 148 82 0 0 0 0 1 0 1 0 0 1
73 47.0 16.0 10.0 25.0 22 170 91 1 0 0 0 0 0 0 1 0 0
74 44.0 17.0 10.0 9.0 30 135 65 1 0 0 0 0 0 0 1 0 1
75 46.0 13.0 10.0 8.0 74 195 55 0 0 0 0 0 1 0 0 0 0
76 49.0 11.0 10.0 18.0 27 141 88 0 0 0 0 0 1 0 0 0 0
77 49.0 42.0 10.0 13.0 27 128 95 0 0 0 0 1 1 0 0 0 0
78 53.0 43.0 10.0 14.0 72 200 73 0 0 0 0 0 1 0 0 0 0
79 61.0 52.0 10.0 3.0 42 159 54 0 0 0 0 0 0 0 1 0 0
80 57.0 48.0 10.0 23.0 47 146 39 0 0 0 0 0 1 0 0 0 0
81 56.0 37.0 10.0 6.0 73 198 84 0 1 0 0 0 1 0 0 0 0
82 55.0 54.0 10.0 26.0 57 140 48 0 0 0 0 0 0 1 0 1 0
83 15.0 47.0 10.0 16.0 23 146 86 0 0 0 0 1 0 0 0 0 1
84 14.0 37.0 10.0 11.0 21 157 42 0 0 0 0 0 0 0 0 0 1
85 11.0 31.0 10.0 7.0 57 154 1 0 0 0 0 1 0 0 1 1 0
86 16.0 22.0 10.0 41.0 44 147 28 0 1 0 0 0 0 0 1 1 0
87 4.0 18.0 10.0 35.0 49 148 14 0 0 0 0 0 0 0 1 0 0
88 28.0 18.0 10.0 26.0 61 134 94 0 0 0 0 0 1 0 0 0 0
89 26.0 52.0 10.0 9.0 21 136 5 0 0 0 0 0 0 0 0 1 0
90 26.0 35.0 10.0 15.0 68 211 50 0 0 0 0 1 0 1 0 1 1
91 31.0 67.0 10.0 3.0 46 153 47 0 0 0 0 0 1 0 0 0 0
92 15.0 19.0 10.0 1.0 70 194 35 0 0 0 0 0 0 0 0 1 0
93 22.0 22.0 10.0 2.0 18 159 36 0 0 0 0 0 0 0 0 1 0
94 18.0 24.0 10.0 22.0 60 199 52 1 0 0 0 1 1 0 0 1 0
95 26.0 27.0 10.0 27.0 58 151 40 0 0 0 0 0 0 1 0 1 0
96 25.0 24.0 10.0 20.0 14 143 89 1 0 0 0 0 0 0 0 0 0
97 22.0 27.0 10.0 11.0 89 190 26 0 0 0 0 0 1 0 0 0 1
98 25.0 21.0 10.0 12.0 92 183 11 0 0 0 0 0 1 0 0 0 0
99 19.0 21.0 10.0 10.0 21 142 79 0 0 1 0 0 1 0 0 0 1
100 20.0 26.0 10.0 9.0 33 142 15 0 0 0 0 0 1 0 0 0 0
101 18.0 18.0 10.0 17.0 51 195 23 0 0 1 1 0 1 0 0 0 0